p cnf 410 1461
c p weight -39 1 0
c p weight 39 -1 0
c p weight 43 6.12323399573676603586882014729198302312846062338790031898128063403419218957424163818359375E-17 0
c p weight -43 1 0
c p weight 44 1 0
c p weight -44 1 0
c p weight -41 1 0
c p weight 41 -1 0
c p weight -45 1 0
c p weight 45 -1 0
c p weight -47 1 0
c p weight 47 -1 0
c p weight -48 1 0
c p weight 48 -1 0
c p weight 52 6.12323399573676603586882014729198302312846062338790031898128063403419218957424163818359375E-17 0
c p weight -52 1 0
c p weight 53 1 0
c p weight -53 1 0
c p weight -50 1 0
c p weight 50 -1 0
c p weight -54 1 0
c p weight 54 -1 0
c p weight -56 1 0
c p weight 56 -1 0
c p weight -57 1 0
c p weight 57 -1 0
c p weight 61 6.12323399573676603586882014729198302312846062338790031898128063403419218957424163818359375E-17 0
c p weight -61 1 0
c p weight 62 1 0
c p weight -62 1 0
c p weight -59 1 0
c p weight 59 -1 0
c p weight -63 1 0
c p weight 63 -1 0
c p weight -65 1 0
c p weight 65 -1 0
c p weight 69 6.12323399573676603586882014729198302312846062338790031898128063403419218957424163818359375E-17 0
c p weight -69 1 0
c p weight 70 1 0
c p weight -70 1 0
c p weight -67 1 0
c p weight 67 -1 0
c p weight -71 1 0
c p weight 71 -1 0
c p weight -73 1 0
c p weight 73 -1 0
c p weight -74 1 0
c p weight 74 -1 0
c p weight 78 6.12323399573676603586882014729198302312846062338790031898128063403419218957424163818359375E-17 0
c p weight -78 1 0
c p weight 79 1 0
c p weight -79 1 0
c p weight -76 1 0
c p weight 76 -1 0
c p weight -80 1 0
c p weight 80 -1 0
c p weight -82 1 0
c p weight 82 -1 0
c p weight 86 6.12323399573676603586882014729198302312846062338790031898128063403419218957424163818359375E-17 0
c p weight -86 1 0
c p weight 87 1 0
c p weight -87 1 0
c p weight -84 1 0
c p weight 84 -1 0
c p weight -88 1 0
c p weight 88 -1 0
c p weight -90 1 0
c p weight 90 -1 0
c p weight -91 1 0
c p weight 91 -1 0
c p weight 95 6.12323399573676603586882014729198302312846062338790031898128063403419218957424163818359375E-17 0
c p weight -95 1 0
c p weight 96 1 0
c p weight -96 1 0
c p weight -93 1 0
c p weight 93 -1 0
c p weight -97 1 0
c p weight 97 -1 0
c p weight -99 1 0
c p weight 99 -1 0
c p weight -100 1 0
c p weight 100 -1 0
c p weight 104 6.12323399573676603586882014729198302312846062338790031898128063403419218957424163818359375E-17 0
c p weight -104 1 0
c p weight 105 1 0
c p weight -105 1 0
c p weight -102 1 0
c p weight 102 -1 0
c p weight -106 1 0
c p weight 106 -1 0
c p weight -108 1 0
c p weight 108 -1 0
c p weight 112 6.12323399573676603586882014729198302312846062338790031898128063403419218957424163818359375E-17 0
c p weight -112 1 0
c p weight 113 1 0
c p weight -113 1 0
c p weight -110 1 0
c p weight 110 -1 0
c p weight -114 1 0
c p weight 114 -1 0
c p weight -116 1 0
c p weight 116 -1 0
c p weight -117 1 0
c p weight 117 -1 0
c p weight 121 6.12323399573676603586882014729198302312846062338790031898128063403419218957424163818359375E-17 0
c p weight -121 1 0
c p weight 122 1 0
c p weight -122 1 0
c p weight -119 1 0
c p weight 119 -1 0
c p weight -123 1 0
c p weight 123 -1 0
c p weight -125 1 0
c p weight 125 -1 0
c p weight -126 1 0
c p weight 126 -1 0
c p weight 130 6.12323399573676603586882014729198302312846062338790031898128063403419218957424163818359375E-17 0
c p weight -130 1 0
c p weight 131 1 0
c p weight -131 1 0
c p weight -128 1 0
c p weight 128 -1 0
c p weight -132 1 0
c p weight 132 -1 0
c p weight -134 1 0
c p weight 134 -1 0
c p weight 138 6.12323399573676603586882014729198302312846062338790031898128063403419218957424163818359375E-17 0
c p weight -138 1 0
c p weight 139 1 0
c p weight -139 1 0
c p weight -136 1 0
c p weight 136 -1 0
c p weight -140 1 0
c p weight 140 -1 0
c p weight -142 1 0
c p weight 142 -1 0
c p weight -143 1 0
c p weight 143 -1 0
c p weight 147 6.12323399573676603586882014729198302312846062338790031898128063403419218957424163818359375E-17 0
c p weight -147 1 0
c p weight 148 1 0
c p weight -148 1 0
c p weight -145 1 0
c p weight 145 -1 0
c p weight -149 1 0
c p weight 149 -1 0
c p weight -151 1 0
c p weight 151 -1 0
c p weight -152 1 0
c p weight 152 -1 0
c p weight 156 6.12323399573676603586882014729198302312846062338790031898128063403419218957424163818359375E-17 0
c p weight -156 1 0
c p weight 157 1 0
c p weight -157 1 0
c p weight -154 1 0
c p weight 154 -1 0
c p weight -158 1 0
c p weight 158 -1 0
c p weight -160 1 0
c p weight 160 -1 0
c p weight 164 6.12323399573676603586882014729198302312846062338790031898128063403419218957424163818359375E-17 0
c p weight -164 1 0
c p weight 165 1 0
c p weight -165 1 0
c p weight -162 1 0
c p weight 162 -1 0
c p weight -166 1 0
c p weight 166 -1 0
c p weight -168 1 0
c p weight 168 -1 0
c p weight 172 6.12323399573676603586882014729198302312846062338790031898128063403419218957424163818359375E-17 0
c p weight -172 1 0
c p weight 173 1 0
c p weight -173 1 0
c p weight -170 1 0
c p weight 170 -1 0
c p weight -174 1 0
c p weight 174 -1 0
c p weight -176 1 0
c p weight 176 -1 0
c p weight -177 1 0
c p weight 177 -1 0
c p weight 181 6.12323399573676603586882014729198302312846062338790031898128063403419218957424163818359375E-17 0
c p weight -181 1 0
c p weight 182 1 0
c p weight -182 1 0
c p weight -179 1 0
c p weight 179 -1 0
c p weight -183 1 0
c p weight 183 -1 0
c p weight -185 1 0
c p weight 185 -1 0
c p weight 189 6.12323399573676603586882014729198302312846062338790031898128063403419218957424163818359375E-17 0
c p weight -189 1 0
c p weight 190 1 0
c p weight -190 1 0
c p weight -187 1 0
c p weight 187 -1 0
c p weight -191 1 0
c p weight 191 -1 0
c p weight -193 1 0
c p weight 193 -1 0
c p weight -194 1 0
c p weight 194 -1 0
c p weight 198 6.12323399573676603586882014729198302312846062338790031898128063403419218957424163818359375E-17 0
c p weight -198 1 0
c p weight 199 1 0
c p weight -199 1 0
c p weight -196 1 0
c p weight 196 -1 0
c p weight -200 1 0
c p weight 200 -1 0
c p weight -202 1 0
c p weight 202 -1 0
c p weight -205 1 0
c p weight 205 -1 0
c p weight -206 1 0
c p weight 206 -1 0
c p weight 210 6.12323399573676603586882014729198302312846062338790031898128063403419218957424163818359375E-17 0
c p weight -210 1 0
c p weight 211 1 0
c p weight -211 1 0
c p weight -208 1 0
c p weight 208 -1 0
c p weight -212 1 0
c p weight 212 -1 0
c p weight -214 1 0
c p weight 214 -1 0
c p weight -217 1 0
c p weight 217 -1 0
c p weight -218 1 0
c p weight 218 -1 0
c p weight 222 6.12323399573676603586882014729198302312846062338790031898128063403419218957424163818359375E-17 0
c p weight -222 1 0
c p weight 223 1 0
c p weight -223 1 0
c p weight -220 1 0
c p weight 220 -1 0
c p weight -224 1 0
c p weight 224 -1 0
c p weight -226 1 0
c p weight 226 -1 0
c p weight -229 1 0
c p weight 229 -1 0
c p weight 233 6.12323399573676603586882014729198302312846062338790031898128063403419218957424163818359375E-17 0
c p weight -233 1 0
c p weight 234 1 0
c p weight -234 1 0
c p weight -231 1 0
c p weight 231 -1 0
c p weight -235 1 0
c p weight 235 -1 0
c p weight -237 1 0
c p weight 237 -1 0
c p weight -240 1 0
c p weight 240 -1 0
c p weight -241 1 0
c p weight 241 -1 0
c p weight 245 6.12323399573676603586882014729198302312846062338790031898128063403419218957424163818359375E-17 0
c p weight -245 1 0
c p weight 246 1 0
c p weight -246 1 0
c p weight -243 1 0
c p weight 243 -1 0
c p weight -247 1 0
c p weight 247 -1 0
c p weight -249 1 0
c p weight 249 -1 0
c p weight -252 1 0
c p weight 252 -1 0
c p weight 256 6.12323399573676603586882014729198302312846062338790031898128063403419218957424163818359375E-17 0
c p weight -256 1 0
c p weight 257 1 0
c p weight -257 1 0
c p weight -254 1 0
c p weight 254 -1 0
c p weight -258 1 0
c p weight 258 -1 0
c p weight -260 1 0
c p weight 260 -1 0
c p weight -263 1 0
c p weight 263 -1 0
c p weight -264 1 0
c p weight 264 -1 0
c p weight 268 6.12323399573676603586882014729198302312846062338790031898128063403419218957424163818359375E-17 0
c p weight -268 1 0
c p weight 269 1 0
c p weight -269 1 0
c p weight -266 1 0
c p weight 266 -1 0
c p weight -270 1 0
c p weight 270 -1 0
c p weight -272 1 0
c p weight 272 -1 0
c p weight -275 1 0
c p weight 275 -1 0
c p weight -276 1 0
c p weight 276 -1 0
c p weight 280 6.12323399573676603586882014729198302312846062338790031898128063403419218957424163818359375E-17 0
c p weight -280 1 0
c p weight 281 1 0
c p weight -281 1 0
c p weight -278 1 0
c p weight 278 -1 0
c p weight -282 1 0
c p weight 282 -1 0
c p weight -284 1 0
c p weight 284 -1 0
c p weight -287 1 0
c p weight 287 -1 0
c p weight 291 6.12323399573676603586882014729198302312846062338790031898128063403419218957424163818359375E-17 0
c p weight -291 1 0
c p weight 292 1 0
c p weight -292 1 0
c p weight -289 1 0
c p weight 289 -1 0
c p weight -293 1 0
c p weight 293 -1 0
c p weight -295 1 0
c p weight 295 -1 0
c p weight -298 1 0
c p weight 298 -1 0
c p weight -299 1 0
c p weight 299 -1 0
c p weight 303 6.12323399573676603586882014729198302312846062338790031898128063403419218957424163818359375E-17 0
c p weight -303 1 0
c p weight 304 1 0
c p weight -304 1 0
c p weight -301 1 0
c p weight 301 -1 0
c p weight -305 1 0
c p weight 305 -1 0
c p weight -307 1 0
c p weight 307 -1 0
c p weight -310 1 0
c p weight 310 -1 0
c p weight -311 1 0
c p weight 311 -1 0
c p weight 315 6.12323399573676603586882014729198302312846062338790031898128063403419218957424163818359375E-17 0
c p weight -315 1 0
c p weight 316 1 0
c p weight -316 1 0
c p weight -313 1 0
c p weight 313 -1 0
c p weight -317 1 0
c p weight 317 -1 0
c p weight -319 1 0
c p weight 319 -1 0
c p weight -322 1 0
c p weight 322 -1 0
c p weight 326 6.12323399573676603586882014729198302312846062338790031898128063403419218957424163818359375E-17 0
c p weight -326 1 0
c p weight 327 1 0
c p weight -327 1 0
c p weight -324 1 0
c p weight 324 -1 0
c p weight -328 1 0
c p weight 328 -1 0
c p weight -330 1 0
c p weight 330 -1 0
c p weight -333 1 0
c p weight 333 -1 0
c p weight -334 1 0
c p weight 334 -1 0
c p weight 338 6.12323399573676603586882014729198302312846062338790031898128063403419218957424163818359375E-17 0
c p weight -338 1 0
c p weight 339 1 0
c p weight -339 1 0
c p weight -336 1 0
c p weight 336 -1 0
c p weight -340 1 0
c p weight 340 -1 0
c p weight -342 1 0
c p weight 342 -1 0
c p weight -345 1 0
c p weight 345 -1 0
c p weight -346 1 0
c p weight 346 -1 0
c p weight 350 6.12323399573676603586882014729198302312846062338790031898128063403419218957424163818359375E-17 0
c p weight -350 1 0
c p weight 351 1 0
c p weight -351 1 0
c p weight -348 1 0
c p weight 348 -1 0
c p weight -352 1 0
c p weight 352 -1 0
c p weight -354 1 0
c p weight 354 -1 0
c p weight -357 1 0
c p weight 357 -1 0
c p weight 361 6.12323399573676603586882014729198302312846062338790031898128063403419218957424163818359375E-17 0
c p weight -361 1 0
c p weight 362 1 0
c p weight -362 1 0
c p weight -359 1 0
c p weight 359 -1 0
c p weight -363 1 0
c p weight 363 -1 0
c p weight -365 1 0
c p weight 365 -1 0
c p weight -368 1 0
c p weight 368 -1 0
c p weight 372 6.12323399573676603586882014729198302312846062338790031898128063403419218957424163818359375E-17 0
c p weight -372 1 0
c p weight 373 1 0
c p weight -373 1 0
c p weight -370 1 0
c p weight 370 -1 0
c p weight -374 1 0
c p weight 374 -1 0
c p weight -376 1 0
c p weight 376 -1 0
c p weight -379 1 0
c p weight 379 -1 0
c p weight -380 1 0
c p weight 380 -1 0
c p weight 384 6.12323399573676603586882014729198302312846062338790031898128063403419218957424163818359375E-17 0
c p weight -384 1 0
c p weight 385 1 0
c p weight -385 1 0
c p weight -382 1 0
c p weight 382 -1 0
c p weight -386 1 0
c p weight 386 -1 0
c p weight -388 1 0
c p weight 388 -1 0
c p weight -391 1 0
c p weight 391 -1 0
c p weight 395 6.12323399573676603586882014729198302312846062338790031898128063403419218957424163818359375E-17 0
c p weight -395 1 0
c p weight 396 1 0
c p weight -396 1 0
c p weight -393 1 0
c p weight 393 -1 0
c p weight -397 1 0
c p weight 397 -1 0
c p weight -399 1 0
c p weight 399 -1 0
c p weight -402 1 0
c p weight 402 -1 0
c p weight 406 6.12323399573676603586882014729198302312846062338790031898128063403419218957424163818359375E-17 0
c p weight -406 1 0
c p weight 407 1 0
c p weight -407 1 0
c p weight -404 1 0
c p weight 404 -1 0
c p weight -408 1 0
c p weight 408 -1 0
c p weight 410 0.5 0
c p weight -410 1 0
410 0
-37 0
-35 0
-33 0
-31 0
-29 0
-27 0
-25 0
-23 0
-21 0
-19 0
-17 0
-15 0
-13 0
-11 0
-9 0
-7 0
-5 0
-3 0
-1 0
-39 1 0
-39 2 0
39 -1 -2 0
40 1 -2 0
40 -1 2 0
-40 1 2 0
-40 -1 -2 0
-41 42 0
-41 40 0
-41 -1 0
41 -42 1 -40 0
42 -1 40 0
-42 1 40 0
-43 40 0
42 -43 -1 0
-42 -43 1 0
42 43 1 -40 0
-42 43 -1 -40 0
-44 40 0
42 -44 1 0
-42 -44 -1 0
42 44 -1 -40 0
-42 44 1 -40 0
-45 42 0
-45 40 0
45 -42 -40 0
46 42 -40 0
46 -42 40 0
-46 42 40 0
-46 -42 -40 0
47 -46 0
-47 46 0
-48 3 0
-48 4 0
48 -3 -4 0
49 3 -4 0
49 -3 4 0
-49 3 4 0
-49 -3 -4 0
-50 51 0
-50 49 0
-50 -3 0
50 -51 3 -49 0
51 -3 49 0
-51 3 49 0
-52 49 0
51 -52 -3 0
-51 -52 3 0
51 52 3 -49 0
-51 52 -3 -49 0
-53 49 0
51 -53 3 0
-51 -53 -3 0
51 53 -3 -49 0
-51 53 3 -49 0
-54 51 0
-54 49 0
54 -51 -49 0
55 51 -49 0
55 -51 49 0
-55 51 49 0
-55 -51 -49 0
56 -55 0
-56 55 0
-57 5 0
-57 6 0
57 -5 -6 0
58 5 -6 0
58 -5 6 0
-58 5 6 0
-58 -5 -6 0
-59 60 0
-59 58 0
-59 -5 0
59 -60 5 -58 0
60 -5 58 0
-60 5 58 0
-61 58 0
60 -61 -5 0
-60 -61 5 0
60 61 5 -58 0
-60 61 -5 -58 0
-62 58 0
60 -62 5 0
-60 -62 -5 0
60 62 -5 -58 0
-60 62 5 -58 0
-63 60 0
-63 58 0
63 -60 -58 0
64 60 -58 0
64 -60 58 0
-64 60 58 0
-64 -60 -58 0
-65 7 0
-65 8 0
65 -7 -8 0
66 7 -8 0
66 -7 8 0
-66 7 8 0
-66 -7 -8 0
-67 68 0
-67 66 0
-67 -7 0
67 -68 7 -66 0
68 -7 66 0
-68 7 66 0
-69 66 0
68 -69 -7 0
-68 -69 7 0
68 69 7 -66 0
-68 69 -7 -66 0
-70 66 0
68 -70 7 0
-68 -70 -7 0
68 70 -7 -66 0
-68 70 7 -66 0
-71 68 0
-71 66 0
71 -68 -66 0
72 68 -66 0
72 -68 66 0
-72 68 66 0
-72 -68 -66 0
73 -72 0
-73 72 0
-74 9 0
-74 10 0
74 -9 -10 0
75 9 -10 0
75 -9 10 0
-75 9 10 0
-75 -9 -10 0
-76 77 0
-76 75 0
-76 -9 0
76 -77 9 -75 0
77 -9 75 0
-77 9 75 0
-78 75 0
77 -78 -9 0
-77 -78 9 0
77 78 9 -75 0
-77 78 -9 -75 0
-79 75 0
77 -79 9 0
-77 -79 -9 0
77 79 -9 -75 0
-77 79 9 -75 0
-80 77 0
-80 75 0
80 -77 -75 0
81 77 -75 0
81 -77 75 0
-81 77 75 0
-81 -77 -75 0
-82 11 0
-82 12 0
82 -11 -12 0
83 11 -12 0
83 -11 12 0
-83 11 12 0
-83 -11 -12 0
-84 85 0
-84 83 0
-84 -11 0
84 -85 11 -83 0
85 -11 83 0
-85 11 83 0
-86 83 0
85 -86 -11 0
-85 -86 11 0
85 86 11 -83 0
-85 86 -11 -83 0
-87 83 0
85 -87 11 0
-85 -87 -11 0
85 87 -11 -83 0
-85 87 11 -83 0
-88 85 0
-88 83 0
88 -85 -83 0
89 85 -83 0
89 -85 83 0
-89 85 83 0
-89 -85 -83 0
90 -89 0
-90 89 0
-91 13 0
-91 14 0
91 -13 -14 0
92 13 -14 0
92 -13 14 0
-92 13 14 0
-92 -13 -14 0
-93 94 0
-93 92 0
-93 -13 0
93 -94 13 -92 0
94 -13 92 0
-94 13 92 0
-95 92 0
94 -95 -13 0
-94 -95 13 0
94 95 13 -92 0
-94 95 -13 -92 0
-96 92 0
94 -96 13 0
-94 -96 -13 0
94 96 -13 -92 0
-94 96 13 -92 0
-97 94 0
-97 92 0
97 -94 -92 0
98 94 -92 0
98 -94 92 0
-98 94 92 0
-98 -94 -92 0
99 -98 0
-99 98 0
-100 15 0
-100 16 0
100 -15 -16 0
101 15 -16 0
101 -15 16 0
-101 15 16 0
-101 -15 -16 0
-102 103 0
-102 101 0
-102 -15 0
102 -103 15 -101 0
103 -15 101 0
-103 15 101 0
-104 101 0
103 -104 -15 0
-103 -104 15 0
103 104 15 -101 0
-103 104 -15 -101 0
-105 101 0
103 -105 15 0
-103 -105 -15 0
103 105 -15 -101 0
-103 105 15 -101 0
-106 103 0
-106 101 0
106 -103 -101 0
107 103 -101 0
107 -103 101 0
-107 103 101 0
-107 -103 -101 0
-108 17 0
-108 18 0
108 -17 -18 0
109 17 -18 0
109 -17 18 0
-109 17 18 0
-109 -17 -18 0
-110 111 0
-110 109 0
-110 -17 0
110 -111 17 -109 0
111 -17 109 0
-111 17 109 0
-112 109 0
111 -112 -17 0
-111 -112 17 0
111 112 17 -109 0
-111 112 -17 -109 0
-113 109 0
111 -113 17 0
-111 -113 -17 0
111 113 -17 -109 0
-111 113 17 -109 0
-114 111 0
-114 109 0
114 -111 -109 0
115 111 -109 0
115 -111 109 0
-115 111 109 0
-115 -111 -109 0
116 -115 0
-116 115 0
-117 19 0
-117 20 0
117 -19 -20 0
118 19 -20 0
118 -19 20 0
-118 19 20 0
-118 -19 -20 0
-119 120 0
-119 118 0
-119 -19 0
119 -120 19 -118 0
120 -19 118 0
-120 19 118 0
-121 118 0
120 -121 -19 0
-120 -121 19 0
120 121 19 -118 0
-120 121 -19 -118 0
-122 118 0
120 -122 19 0
-120 -122 -19 0
120 122 -19 -118 0
-120 122 19 -118 0
-123 120 0
-123 118 0
123 -120 -118 0
124 120 -118 0
124 -120 118 0
-124 120 118 0
-124 -120 -118 0
125 -124 0
-125 124 0
-126 21 0
-126 22 0
126 -21 -22 0
127 21 -22 0
127 -21 22 0
-127 21 22 0
-127 -21 -22 0
-128 129 0
-128 127 0
-128 -21 0
128 -129 21 -127 0
129 -21 127 0
-129 21 127 0
-130 127 0
129 -130 -21 0
-129 -130 21 0
129 130 21 -127 0
-129 130 -21 -127 0
-131 127 0
129 -131 21 0
-129 -131 -21 0
129 131 -21 -127 0
-129 131 21 -127 0
-132 129 0
-132 127 0
132 -129 -127 0
133 129 -127 0
133 -129 127 0
-133 129 127 0
-133 -129 -127 0
-134 23 0
-134 24 0
134 -23 -24 0
135 23 -24 0
135 -23 24 0
-135 23 24 0
-135 -23 -24 0
-136 137 0
-136 135 0
-136 -23 0
136 -137 23 -135 0
137 -23 135 0
-137 23 135 0
-138 135 0
137 -138 -23 0
-137 -138 23 0
137 138 23 -135 0
-137 138 -23 -135 0
-139 135 0
137 -139 23 0
-137 -139 -23 0
137 139 -23 -135 0
-137 139 23 -135 0
-140 137 0
-140 135 0
140 -137 -135 0
141 137 -135 0
141 -137 135 0
-141 137 135 0
-141 -137 -135 0
142 -141 0
-142 141 0
-143 25 0
-143 26 0
143 -25 -26 0
144 25 -26 0
144 -25 26 0
-144 25 26 0
-144 -25 -26 0
-145 146 0
-145 144 0
-145 -25 0
145 -146 25 -144 0
146 -25 144 0
-146 25 144 0
-147 144 0
146 -147 -25 0
-146 -147 25 0
146 147 25 -144 0
-146 147 -25 -144 0
-148 144 0
146 -148 25 0
-146 -148 -25 0
146 148 -25 -144 0
-146 148 25 -144 0
-149 146 0
-149 144 0
149 -146 -144 0
150 146 -144 0
150 -146 144 0
-150 146 144 0
-150 -146 -144 0
151 -150 0
-151 150 0
-152 27 0
-152 28 0
152 -27 -28 0
153 27 -28 0
153 -27 28 0
-153 27 28 0
-153 -27 -28 0
-154 155 0
-154 153 0
-154 -27 0
154 -155 27 -153 0
155 -27 153 0
-155 27 153 0
-156 153 0
155 -156 -27 0
-155 -156 27 0
155 156 27 -153 0
-155 156 -27 -153 0
-157 153 0
155 -157 27 0
-155 -157 -27 0
155 157 -27 -153 0
-155 157 27 -153 0
-158 155 0
-158 153 0
158 -155 -153 0
159 155 -153 0
159 -155 153 0
-159 155 153 0
-159 -155 -153 0
-160 29 0
-160 30 0
160 -29 -30 0
161 29 -30 0
161 -29 30 0
-161 29 30 0
-161 -29 -30 0
-162 163 0
-162 161 0
-162 -29 0
162 -163 29 -161 0
163 -29 161 0
-163 29 161 0
-164 161 0
163 -164 -29 0
-163 -164 29 0
163 164 29 -161 0
-163 164 -29 -161 0
-165 161 0
163 -165 29 0
-163 -165 -29 0
163 165 -29 -161 0
-163 165 29 -161 0
-166 163 0
-166 161 0
166 -163 -161 0
167 163 -161 0
167 -163 161 0
-167 163 161 0
-167 -163 -161 0
-168 31 0
-168 32 0
168 -31 -32 0
169 31 -32 0
169 -31 32 0
-169 31 32 0
-169 -31 -32 0
-170 171 0
-170 169 0
-170 -31 0
170 -171 31 -169 0
171 -31 169 0
-171 31 169 0
-172 169 0
171 -172 -31 0
-171 -172 31 0
171 172 31 -169 0
-171 172 -31 -169 0
-173 169 0
171 -173 31 0
-171 -173 -31 0
171 173 -31 -169 0
-171 173 31 -169 0
-174 171 0
-174 169 0
174 -171 -169 0
175 171 -169 0
175 -171 169 0
-175 171 169 0
-175 -171 -169 0
176 -175 0
-176 175 0
-177 33 0
-177 34 0
177 -33 -34 0
178 33 -34 0
178 -33 34 0
-178 33 34 0
-178 -33 -34 0
-179 180 0
-179 178 0
-179 -33 0
179 -180 33 -178 0
180 -33 178 0
-180 33 178 0
-181 178 0
180 -181 -33 0
-180 -181 33 0
180 181 33 -178 0
-180 181 -33 -178 0
-182 178 0
180 -182 33 0
-180 -182 -33 0
180 182 -33 -178 0
-180 182 33 -178 0
-183 180 0
-183 178 0
183 -180 -178 0
184 180 -178 0
184 -180 178 0
-184 180 178 0
-184 -180 -178 0
-185 35 0
-185 36 0
185 -35 -36 0
186 35 -36 0
186 -35 36 0
-186 35 36 0
-186 -35 -36 0
-187 188 0
-187 186 0
-187 -35 0
187 -188 35 -186 0
188 -35 186 0
-188 35 186 0
-189 186 0
188 -189 -35 0
-188 -189 35 0
188 189 35 -186 0
-188 189 -35 -186 0
-190 186 0
188 -190 35 0
-188 -190 -35 0
188 190 -35 -186 0
-188 190 35 -186 0
-191 188 0
-191 186 0
191 -188 -186 0
192 188 -186 0
192 -188 186 0
-192 188 186 0
-192 -188 -186 0
193 -38 0
-193 38 0
-194 37 0
-194 38 0
194 -37 -38 0
195 37 -38 0
195 -37 38 0
-195 37 38 0
-195 -37 -38 0
-196 197 0
-196 195 0
-196 -37 0
196 -197 37 -195 0
197 -37 195 0
-197 37 195 0
-198 195 0
197 -198 -37 0
-197 -198 37 0
197 198 37 -195 0
-197 198 -37 -195 0
-199 195 0
197 -199 37 0
-197 -199 -37 0
197 199 -37 -195 0
-197 199 37 -195 0
-200 197 0
-200 195 0
200 -197 -195 0
201 197 -195 0
201 -197 195 0
-201 197 195 0
-201 -197 -195 0
-202 42 0
-202 201 0
-202 197 -46 0
-202 -197 46 0
202 -42 197 46 -201 0
202 -42 -197 -46 -201 0
204 42 -197 0
204 -42 197 0
-204 42 197 0
-204 -42 -197 0
203 46 -201 0
203 -46 201 0
-203 46 201 0
-203 -46 -201 0
205 -203 0
-205 203 0
-206 42 0
-206 203 0
206 -42 -203 0
207 42 -203 0
207 -42 203 0
-207 42 203 0
-207 -42 -203 0
-208 209 0
-208 207 0
-208 -42 0
208 -209 42 -207 0
209 -42 207 0
-209 42 207 0
-210 207 0
209 -210 -42 0
-209 -210 42 0
209 210 42 -207 0
-209 210 -42 -207 0
-211 207 0
209 -211 42 0
-209 -211 -42 0
209 211 -42 -207 0
-209 211 42 -207 0
-212 209 0
-212 207 0
212 -209 -207 0
213 209 -207 0
213 -209 207 0
-213 209 207 0
-213 -209 -207 0
-214 51 0
-214 201 0
-214 204 -55 0
-214 -204 55 0
214 -51 204 55 -201 0
214 -51 -204 -55 -201 0
216 51 -204 0
216 -51 204 0
-216 51 204 0
-216 -51 -204 0
215 55 -201 0
215 -55 201 0
-215 55 201 0
-215 -55 -201 0
217 -215 0
-217 215 0
-218 51 0
-218 215 0
218 -51 -215 0
219 51 -215 0
219 -51 215 0
-219 51 215 0
-219 -51 -215 0
-220 221 0
-220 219 0
-220 -51 0
220 -221 51 -219 0
221 -51 219 0
-221 51 219 0
-222 219 0
221 -222 -51 0
-221 -222 51 0
221 222 51 -219 0
-221 222 -51 -219 0
-223 219 0
221 -223 51 0
-221 -223 -51 0
221 223 -51 -219 0
-221 223 51 -219 0
-224 221 0
-224 219 0
224 -221 -219 0
225 221 -219 0
225 -221 219 0
-225 221 219 0
-225 -221 -219 0
-226 60 0
-226 201 0
-226 216 -64 0
-226 -216 64 0
226 -60 216 64 -201 0
226 -60 -216 -64 -201 0
228 60 -216 0
228 -60 216 0
-228 60 216 0
-228 -60 -216 0
227 64 -201 0
227 -64 201 0
-227 64 201 0
-227 -64 -201 0
-229 60 0
-229 227 0
229 -60 -227 0
230 60 -227 0
230 -60 227 0
-230 60 227 0
-230 -60 -227 0
-231 232 0
-231 230 0
-231 -60 0
231 -232 60 -230 0
232 -60 230 0
-232 60 230 0
-233 230 0
232 -233 -60 0
-232 -233 60 0
232 233 60 -230 0
-232 233 -60 -230 0
-234 230 0
232 -234 60 0
-232 -234 -60 0
232 234 -60 -230 0
-232 234 60 -230 0
-235 232 0
-235 230 0
235 -232 -230 0
236 232 -230 0
236 -232 230 0
-236 232 230 0
-236 -232 -230 0
-237 68 0
-237 201 0
-237 228 -72 0
-237 -228 72 0
237 -68 228 72 -201 0
237 -68 -228 -72 -201 0
239 68 -228 0
239 -68 228 0
-239 68 228 0
-239 -68 -228 0
238 72 -201 0
238 -72 201 0
-238 72 201 0
-238 -72 -201 0
240 -238 0
-240 238 0
-241 68 0
-241 238 0
241 -68 -238 0
242 68 -238 0
242 -68 238 0
-242 68 238 0
-242 -68 -238 0
-243 244 0
-243 242 0
-243 -68 0
243 -244 68 -242 0
244 -68 242 0
-244 68 242 0
-245 242 0
244 -245 -68 0
-244 -245 68 0
244 245 68 -242 0
-244 245 -68 -242 0
-246 242 0
244 -246 68 0
-244 -246 -68 0
244 246 -68 -242 0
-244 246 68 -242 0
-247 244 0
-247 242 0
247 -244 -242 0
248 244 -242 0
248 -244 242 0
-248 244 242 0
-248 -244 -242 0
-249 77 0
-249 201 0
-249 239 -81 0
-249 -239 81 0
249 -77 239 81 -201 0
249 -77 -239 -81 -201 0
251 77 -239 0
251 -77 239 0
-251 77 239 0
-251 -77 -239 0
250 81 -201 0
250 -81 201 0
-250 81 201 0
-250 -81 -201 0
-252 77 0
-252 250 0
252 -77 -250 0
253 77 -250 0
253 -77 250 0
-253 77 250 0
-253 -77 -250 0
-254 255 0
-254 253 0
-254 -77 0
254 -255 77 -253 0
255 -77 253 0
-255 77 253 0
-256 253 0
255 -256 -77 0
-255 -256 77 0
255 256 77 -253 0
-255 256 -77 -253 0
-257 253 0
255 -257 77 0
-255 -257 -77 0
255 257 -77 -253 0
-255 257 77 -253 0
-258 255 0
-258 253 0
258 -255 -253 0
259 255 -253 0
259 -255 253 0
-259 255 253 0
-259 -255 -253 0
-260 85 0
-260 201 0
-260 251 -89 0
-260 -251 89 0
260 -85 251 89 -201 0
260 -85 -251 -89 -201 0
262 85 -251 0
262 -85 251 0
-262 85 251 0
-262 -85 -251 0
261 89 -201 0
261 -89 201 0
-261 89 201 0
-261 -89 -201 0
263 -261 0
-263 261 0
-264 85 0
-264 261 0
264 -85 -261 0
265 85 -261 0
265 -85 261 0
-265 85 261 0
-265 -85 -261 0
-266 267 0
-266 265 0
-266 -85 0
266 -267 85 -265 0
267 -85 265 0
-267 85 265 0
-268 265 0
267 -268 -85 0
-267 -268 85 0
267 268 85 -265 0
-267 268 -85 -265 0
-269 265 0
267 -269 85 0
-267 -269 -85 0
267 269 -85 -265 0
-267 269 85 -265 0
-270 267 0
-270 265 0
270 -267 -265 0
271 267 -265 0
271 -267 265 0
-271 267 265 0
-271 -267 -265 0
-272 94 0
-272 201 0
-272 262 -98 0
-272 -262 98 0
272 -94 262 98 -201 0
272 -94 -262 -98 -201 0
274 94 -262 0
274 -94 262 0
-274 94 262 0
-274 -94 -262 0
273 98 -201 0
273 -98 201 0
-273 98 201 0
-273 -98 -201 0
275 -273 0
-275 273 0
-276 94 0
-276 273 0
276 -94 -273 0
277 94 -273 0
277 -94 273 0
-277 94 273 0
-277 -94 -273 0
-278 279 0
-278 277 0
-278 -94 0
278 -279 94 -277 0
279 -94 277 0
-279 94 277 0
-280 277 0
279 -280 -94 0
-279 -280 94 0
279 280 94 -277 0
-279 280 -94 -277 0
-281 277 0
279 -281 94 0
-279 -281 -94 0
279 281 -94 -277 0
-279 281 94 -277 0
-282 279 0
-282 277 0
282 -279 -277 0
283 279 -277 0
283 -279 277 0
-283 279 277 0
-283 -279 -277 0
-284 103 0
-284 201 0
-284 274 -107 0
-284 -274 107 0
284 -103 274 107 -201 0
284 -103 -274 -107 -201 0
286 103 -274 0
286 -103 274 0
-286 103 274 0
-286 -103 -274 0
285 107 -201 0
285 -107 201 0
-285 107 201 0
-285 -107 -201 0
-287 103 0
-287 285 0
287 -103 -285 0
288 103 -285 0
288 -103 285 0
-288 103 285 0
-288 -103 -285 0
-289 290 0
-289 288 0
-289 -103 0
289 -290 103 -288 0
290 -103 288 0
-290 103 288 0
-291 288 0
290 -291 -103 0
-290 -291 103 0
290 291 103 -288 0
-290 291 -103 -288 0
-292 288 0
290 -292 103 0
-290 -292 -103 0
290 292 -103 -288 0
-290 292 103 -288 0
-293 290 0
-293 288 0
293 -290 -288 0
294 290 -288 0
294 -290 288 0
-294 290 288 0
-294 -290 -288 0
-295 111 0
-295 201 0
-295 286 -115 0
-295 -286 115 0
295 -111 286 115 -201 0
295 -111 -286 -115 -201 0
297 111 -286 0
297 -111 286 0
-297 111 286 0
-297 -111 -286 0
296 115 -201 0
296 -115 201 0
-296 115 201 0
-296 -115 -201 0
298 -296 0
-298 296 0
-299 111 0
-299 296 0
299 -111 -296 0
300 111 -296 0
300 -111 296 0
-300 111 296 0
-300 -111 -296 0
-301 302 0
-301 300 0
-301 -111 0
301 -302 111 -300 0
302 -111 300 0
-302 111 300 0
-303 300 0
302 -303 -111 0
-302 -303 111 0
302 303 111 -300 0
-302 303 -111 -300 0
-304 300 0
302 -304 111 0
-302 -304 -111 0
302 304 -111 -300 0
-302 304 111 -300 0
-305 302 0
-305 300 0
305 -302 -300 0
306 302 -300 0
306 -302 300 0
-306 302 300 0
-306 -302 -300 0
-307 120 0
-307 201 0
-307 297 -124 0
-307 -297 124 0
307 -120 297 124 -201 0
307 -120 -297 -124 -201 0
309 120 -297 0
309 -120 297 0
-309 120 297 0
-309 -120 -297 0
308 124 -201 0
308 -124 201 0
-308 124 201 0
-308 -124 -201 0
310 -308 0
-310 308 0
-311 120 0
-311 308 0
311 -120 -308 0
312 120 -308 0
312 -120 308 0
-312 120 308 0
-312 -120 -308 0
-313 314 0
-313 312 0
-313 -120 0
313 -314 120 -312 0
314 -120 312 0
-314 120 312 0
-315 312 0
314 -315 -120 0
-314 -315 120 0
314 315 120 -312 0
-314 315 -120 -312 0
-316 312 0
314 -316 120 0
-314 -316 -120 0
314 316 -120 -312 0
-314 316 120 -312 0
-317 314 0
-317 312 0
317 -314 -312 0
318 314 -312 0
318 -314 312 0
-318 314 312 0
-318 -314 -312 0
-319 129 0
-319 201 0
-319 309 -133 0
-319 -309 133 0
319 -129 309 133 -201 0
319 -129 -309 -133 -201 0
321 129 -309 0
321 -129 309 0
-321 129 309 0
-321 -129 -309 0
320 133 -201 0
320 -133 201 0
-320 133 201 0
-320 -133 -201 0
-322 129 0
-322 320 0
322 -129 -320 0
323 129 -320 0
323 -129 320 0
-323 129 320 0
-323 -129 -320 0
-324 325 0
-324 323 0
-324 -129 0
324 -325 129 -323 0
325 -129 323 0
-325 129 323 0
-326 323 0
325 -326 -129 0
-325 -326 129 0
325 326 129 -323 0
-325 326 -129 -323 0
-327 323 0
325 -327 129 0
-325 -327 -129 0
325 327 -129 -323 0
-325 327 129 -323 0
-328 325 0
-328 323 0
328 -325 -323 0
329 325 -323 0
329 -325 323 0
-329 325 323 0
-329 -325 -323 0
-330 137 0
-330 201 0
-330 321 -141 0
-330 -321 141 0
330 -137 321 141 -201 0
330 -137 -321 -141 -201 0
332 137 -321 0
332 -137 321 0
-332 137 321 0
-332 -137 -321 0
331 141 -201 0
331 -141 201 0
-331 141 201 0
-331 -141 -201 0
333 -331 0
-333 331 0
-334 137 0
-334 331 0
334 -137 -331 0
335 137 -331 0
335 -137 331 0
-335 137 331 0
-335 -137 -331 0
-336 337 0
-336 335 0
-336 -137 0
336 -337 137 -335 0
337 -137 335 0
-337 137 335 0
-338 335 0
337 -338 -137 0
-337 -338 137 0
337 338 137 -335 0
-337 338 -137 -335 0
-339 335 0
337 -339 137 0
-337 -339 -137 0
337 339 -137 -335 0
-337 339 137 -335 0
-340 337 0
-340 335 0
340 -337 -335 0
341 337 -335 0
341 -337 335 0
-341 337 335 0
-341 -337 -335 0
-342 146 0
-342 201 0
-342 332 -150 0
-342 -332 150 0
342 -146 332 150 -201 0
342 -146 -332 -150 -201 0
344 146 -332 0
344 -146 332 0
-344 146 332 0
-344 -146 -332 0
343 150 -201 0
343 -150 201 0
-343 150 201 0
-343 -150 -201 0
345 -343 0
-345 343 0
-346 146 0
-346 343 0
346 -146 -343 0
347 146 -343 0
347 -146 343 0
-347 146 343 0
-347 -146 -343 0
-348 349 0
-348 347 0
-348 -146 0
348 -349 146 -347 0
349 -146 347 0
-349 146 347 0
-350 347 0
349 -350 -146 0
-349 -350 146 0
349 350 146 -347 0
-349 350 -146 -347 0
-351 347 0
349 -351 146 0
-349 -351 -146 0
349 351 -146 -347 0
-349 351 146 -347 0
-352 349 0
-352 347 0
352 -349 -347 0
353 349 -347 0
353 -349 347 0
-353 349 347 0
-353 -349 -347 0
-354 155 0
-354 201 0
-354 344 -159 0
-354 -344 159 0
354 -155 344 159 -201 0
354 -155 -344 -159 -201 0
356 155 -344 0
356 -155 344 0
-356 155 344 0
-356 -155 -344 0
355 159 -201 0
355 -159 201 0
-355 159 201 0
-355 -159 -201 0
-357 155 0
-357 355 0
357 -155 -355 0
358 155 -355 0
358 -155 355 0
-358 155 355 0
-358 -155 -355 0
-359 360 0
-359 358 0
-359 -155 0
359 -360 155 -358 0
360 -155 358 0
-360 155 358 0
-361 358 0
360 -361 -155 0
-360 -361 155 0
360 361 155 -358 0
-360 361 -155 -358 0
-362 358 0
360 -362 155 0
-360 -362 -155 0
360 362 -155 -358 0
-360 362 155 -358 0
-363 360 0
-363 358 0
363 -360 -358 0
364 360 -358 0
364 -360 358 0
-364 360 358 0
-364 -360 -358 0
-365 163 0
-365 201 0
-365 356 -167 0
-365 -356 167 0
365 -163 356 167 -201 0
365 -163 -356 -167 -201 0
367 163 -356 0
367 -163 356 0
-367 163 356 0
-367 -163 -356 0
366 167 -201 0
366 -167 201 0
-366 167 201 0
-366 -167 -201 0
-368 163 0
-368 366 0
368 -163 -366 0
369 163 -366 0
369 -163 366 0
-369 163 366 0
-369 -163 -366 0
-370 371 0
-370 369 0
-370 -163 0
370 -371 163 -369 0
371 -163 369 0
-371 163 369 0
-372 369 0
371 -372 -163 0
-371 -372 163 0
371 372 163 -369 0
-371 372 -163 -369 0
-373 369 0
371 -373 163 0
-371 -373 -163 0
371 373 -163 -369 0
-371 373 163 -369 0
-374 371 0
-374 369 0
374 -371 -369 0
375 371 -369 0
375 -371 369 0
-375 371 369 0
-375 -371 -369 0
-376 171 0
-376 201 0
-376 367 -175 0
-376 -367 175 0
376 -171 367 175 -201 0
376 -171 -367 -175 -201 0
378 171 -367 0
378 -171 367 0
-378 171 367 0
-378 -171 -367 0
377 175 -201 0
377 -175 201 0
-377 175 201 0
-377 -175 -201 0
379 -377 0
-379 377 0
-380 171 0
-380 377 0
380 -171 -377 0
381 171 -377 0
381 -171 377 0
-381 171 377 0
-381 -171 -377 0
-382 383 0
-382 381 0
-382 -171 0
382 -383 171 -381 0
383 -171 381 0
-383 171 381 0
-384 381 0
383 -384 -171 0
-383 -384 171 0
383 384 171 -381 0
-383 384 -171 -381 0
-385 381 0
383 -385 171 0
-383 -385 -171 0
383 385 -171 -381 0
-383 385 171 -381 0
-386 383 0
-386 381 0
386 -383 -381 0
387 383 -381 0
387 -383 381 0
-387 383 381 0
-387 -383 -381 0
-388 180 0
-388 201 0
-388 378 -184 0
-388 -378 184 0
388 -180 378 184 -201 0
388 -180 -378 -184 -201 0
390 180 -378 0
390 -180 378 0
-390 180 378 0
-390 -180 -378 0
389 184 -201 0
389 -184 201 0
-389 184 201 0
-389 -184 -201 0
-391 180 0
-391 389 0
391 -180 -389 0
392 180 -389 0
392 -180 389 0
-392 180 389 0
-392 -180 -389 0
-393 394 0
-393 392 0
-393 -180 0
393 -394 180 -392 0
394 -180 392 0
-394 180 392 0
-395 392 0
394 -395 -180 0
-394 -395 180 0
394 395 180 -392 0
-394 395 -180 -392 0
-396 392 0
394 -396 180 0
-394 -396 -180 0
394 396 -180 -392 0
-394 396 180 -392 0
-397 394 0
-397 392 0
397 -394 -392 0
398 394 -392 0
398 -394 392 0
-398 394 392 0
-398 -394 -392 0
-399 188 0
-399 201 0
-399 390 -192 0
-399 -390 192 0
399 -188 390 192 -201 0
399 -188 -390 -192 -201 0
401 188 -390 0
401 -188 390 0
-401 188 390 0
-401 -188 -390 0
400 192 -201 0
400 -192 201 0
-400 192 201 0
-400 -192 -201 0
-402 188 0
-402 400 0
402 -188 -400 0
403 188 -400 0
403 -188 400 0
-403 188 400 0
-403 -188 -400 0
-404 405 0
-404 403 0
-404 -188 0
404 -405 188 -403 0
405 -188 403 0
-405 188 403 0
-406 403 0
405 -406 -188 0
-405 -406 188 0
405 406 188 -403 0
-405 406 -188 -403 0
-407 403 0
405 -407 188 0
-405 -407 -188 0
405 407 -188 -403 0
-405 407 188 -403 0
-408 405 0
-408 403 0
408 -405 -403 0
409 405 -403 0
409 -405 403 0
-409 405 403 0
-409 -405 -403 0
-209 0
-221 0
-225 0
-232 0
-236 0
-244 0
-248 0
-255 0
-259 0
-267 0
-271 0
-279 0
-283 0
-290 0
-294 0
-302 0
-306 0
-314 0
-318 0
-325 0
-329 0
-337 0
-341 0
-349 0
-353 0
-360 0
-364 0
-371 0
-375 0
-383 0
-387 0
-394 0
-398 0
-405 0
-409 0
-401 0
-201 0
